50 500
2 5 7 10 11 12 14 17 22 25 27 31 36 39 41 42 45 47 49
1 2 3 5 7 16 19 26 28 30 32 33 34 37 39 40 44 48 49
2 5 6 12 20 21 23 26 27 37 38 39 40 43 45 47 49 50
5 9 14 17 24 25 30 31 34 35 38 39 40 42 45 47 49 50
6 10 14 17 22 23 24 25 26 28 30 33 37 41 43 45 47 49
4 5 9 12 17 20 21 23 27 28 29 31 32 34 40 42 48 49
1 5 7 8 13 16 19 20 25 28 29 31 32 37 44 46 47 48
1 2 10 15 17 25 31 33 35 36 40 41 42 46 47 49 50
4 8 9 11 15 18 21 22 27 29 30 32 38 41 42 46 49
1 2 11 13 15 18 20 21 23 25 29 32 34 35 38 40 50
1 4 5 6 11 12 14 17 18 23 25 27 28 37 43 48
2 3 4 5 7 18 22 23 30 33 37 38 40 42 43 46
1 7 14 15 19 20 23 24 27 33 38 41 42 43 44 49
4 5 9 10 14 15 16 19 21 25 28 33 35 36 41 48
2 4 6 7 13 14 18 26 29 31 38 41 44 46 47 48
3 9 20 22 23 25 28 29 33 34 35 40 43 44 45 46
1 4 5 7 8 22 23 24 26 33 36 40 43 45 48
3 8 11 14 15 16 21 26 29 30 32 33 36 38 40
6 8 13 18 23 24 32 36 38 39 41 42 44 48 50
1 2 3 7 8 15 24 25 26 27 30 34 37 41 48
1 11 15 16 17 19 23 27 32 35 37 43 46 48 50
1 3 4 8 10 11 13 22 26 27 34 40 43 44 47
1 2 5 9 10 24 25 27 33 36 38 39 40 43 47
3 4 8 13 15 19 23 30 31 33 37 39 41 43 47
3 4 13 16 18 20 23 25 27 28 35 37 45 46 50
7 15 16 19 20 21 24 27 29 34 37 39 41 48 49
5 6 12 15 20 24 25 27 28 30 31 39 42 45
3 5 7 8 9 12 14 22 29 35 40 43 47 49
1 4 6 11 13 19 21 26 27 30 31 32 41 42
10 15 16 17 18 19 23 27 31 32 37 38 48 49
4 6 7 12 13 19 25 36 37 39 43 46 47 48
5 8 10 22 24 33 34 35 40 42 45 47 48 49
1 4 9 10 15 18 22 25 26 31 33 34 36 50
1 3 6 10 21 22 25 27 29 31 33 42 44 47
1 5 7 8 10 16 23 30 32 33 38 39 47 50
1 2 4 5 6 9 13 18 20 22 34 43 44 48
1 10 12 19 25 26 27 35 41 42 45 46 48 50
9 12 14 15 20 22 26 32 33 35 37 45 49 50
3 8 10 11 16 17 20 31 34 39 42 45 46 48
3 12 15 18 20 24 27 28 31 32 36 37 41 50
1 5 8 20 21 22 25 26 28 34 38 40 41 47
4 10 11 13 19 23 27 28 34 36 39 40 43 44
2 5 7 8 10 12 15 24 25 35 36 38 44 46
2 4 5 7 9 27 28 35 40 41 43 46 49 50
5 9 12 16 18 22 23 28 37 38 41 44 45 46
2 5 17 23 25 30 31 32 34 36 41 46 47 49
2 4 6 8 13 15 34 35 38 42 44 45 49
1 4 15 16 18 22 24 28 34 35 38 40 41
1 2 3 5 12 20 26 30 31 35 37 39 44
1 2 7 10 12 14 21 23 27 33 36 39 42
1 2 3 5 14 16 18 19 27 30 34 38 42
5 7 10 18 20 21 23 31 38 39 40 43 47
2 5 13 18 20 24 26 30 34 40 47 48 50
2 3 4 5 7 8 31 35 36 38 46 49 50
3 6 8 12 14 22 25 29 37 39 41 45 47
3 5 8 13 18 24 26 31 36 38 41 43 44
4 10 11 13 17 23 25 30 33 39 43 47 50
1 15 18 26 30 33 35 37 41 43 44 46 50
4 8 14 16 21 24 25 29 33 37 43 44 47
3 4 7 13 20 22 26 30 31 38 43 45 48
3 8 13 14 19 20 21 27 33 36 37 39 40
1 8 10 14 16 21 23 24 28 32 40 43 44
8 10 14 16 19 24 26 28 29 38 42 47 49
5 11 12 14 17 20 21 22 28 42 43 46 49
3 8 10 12 14 21 22 29 30 35 36 46 47
3 10 11 13 20 28 32 37 39 40 44 46 50
1 2 11 12 14 19 21 23 28 32 36 44 45
4 7 9 10 14 18 23 24 26 27 28 44 45
3 7 18 19 21 22 24 25 40 43 44 45 50
2 5 8 11 12 17 19 26 31 36 40 43 47
5 15 16 19 21 22 26 28 34 40 42 46 49
2 3 8 13 14 17 18 24 29 38 42 43 44
1 3 5 6 11 12 15 25 38 40 43 45 50
3 7 8 10 14 23 25 27 30 34 35 36 50
1 2 4 5 6 15 20 36 37 42 44 46 50
10 12 14 18 19 24 28 29 32 38 41 43 46
3 6 8 11 16 19 22 23 24 38 41 47 50
1 3 5 12 15 22 26 28 33 39 41 43 44
4 17 20 21 25 28 30 32 34 35 36 37 48
3 7 12 16 19 20 21 24 29 37 40 42 44
10 12 13 16 22 27 33 35 36 39 44 45 50
4 10 19 24 25 27 31 39 43 44 46 47 50
5 7 13 21 27 29 30 31 35 40 43 44 50
2 5 7 8 12 19 31 34 35 36 47 48 49
4 10 13 18 19 20 24 29 31 35 37 38 49
5 6 9 10 24 25 31 34 35 38 44 46 47
1 6 9 13 17 18 22 24 31 32 35 38 49
3 7 9 11 13 17 20 21 22 23 24 47 48
3 5 11 15 16 19 20 35 38 42 43 45 48
2 3 9 10 17 21 22 23 35 39 40 46 49
4 7 16 17 19 24 28 31 37 38 41 49 50
7 8 16 17 25 26 29 30 32 33 38 39 40
4 6 17 18 19 20 22 23 26 32 33 42 50
3 9 10 14 20 21 26 33 36 37 43 45 48
2 3 10 11 12 17 24 33 34 37 40 43 47
2 3 5 7 9 15 17 27 29 30 35 41 44
2 8 16 17 20 24 25 27 33 36 37 42 47
4 11 12 13 14 16 30 37 40 44 46 48
2 8 16 20 21 25 28 36 38 40 42 44
7 10 13 19 24 25 26 30 38 44 45 47
3 5 6 9 10 11 15 18 28 33 37 47
8 11 13 15 16 19 21 22 25 29 41 44
1 3 7 12 14 23 27 29 31 34 37 44
2 3 5 14 28 29 30 31 34 42 44 49
1 14 15 16 19 25 29 32 33 37 44 48
1 2 4 13 17 19 21 24 25 33 34 38
2 3 5 7 10 12 17 27 31 32 47 49
3 14 19 22 24 25 28 31 41 45 46 49
7 10 11 18 19 20 22 29 33 34 35 48
1 3 13 14 15 20 24 27 36 41 45 49
1 2 7 10 15 18 24 26 38 44 46 50
2 4 7 15 17 23 25 30 35 39 41 50
4 6 8 14 16 20 24 38 40 45 46 48
6 19 21 28 29 30 35 37 39 42 47 48
2 11 15 20 23 35 36 39 41 43 44 46
6 8 12 16 23 24 34 40 41 42 44 48
3 4 5 6 12 23 32 35 37 42 48 49
1 3 6 10 11 13 17 18 39 45 48 50
1 2 10 27 29 30 31 34 42 44 48 50
1 10 12 16 18 19 31 33 36 37 38 46
3 8 11 16 17 18 23 28 29 30 37 49
4 5 14 17 20 28 29 30 31 37 38 42
4 5 7 9 15 18 20 29 30 46 49 50
4 9 10 14 22 24 29 41 43 45 47 50
1 2 4 7 11 19 21 23 33 35 38 39
3 8 11 12 16 20 21 36 37 39 45 50
5 6 12 14 23 31 35 37 39 40 45 47
1 9 10 16 20 28 32 39 44 45 48 50
4 7 9 11 13 18 20 25 34 43 47 50
3 4 5 6 7 8 12 14 32 33 34 37
6 11 15 19 20 24 29 32 39 40 46 50
1 3 11 12 17 19 29 41 42 45 47 48
3 8 9 16 21 22 23 24 26 40 47 48
7 9 10 14 17 27 28 30 32 37 44 45
1 6 11 13 21 31 36 39 41 48 49 50
13 16 17 19 22 28 30 36 38 40 44 48
1 7 8 9 15 16 21 24 34 36 37 44
2 4 6 9 15 16 28 30 31 36 44 50
3 7 10 20 22 24 31 34 35 43 49 50
2 3 7 12 19 29 34 36 46 47 49 50
3 5 8 11 25 26 27 28 29 44 45 47
2 3 4 14 23 26 30 37 40 42 45 48
3 8 12 20 24 35 41 43 46 49 50
1 10 15 20 31 35 36 44 45 46 47
4 13 14 16 26 27 39 41 43 46 47
10 11 19 20 27 36 37 44 45 47 49
4 14 15 17 18 19 29 34 42 44 48
3 8 15 18 23 28 35 45 46 47 49
12 16 17 18 21 31 39 41 43 46 49
1 4 5 13 20 24 27 30 34 35 41
2 4 10 12 23 28 29 30 38 49 50
7 8 12 15 16 28 35 38 40 44 47
13 17 18 22 25 26 30 32 39 42 46
3 6 9 12 15 24 28 39 40 42 49
8 11 17 21 26 27 29 31 33 36 37
4 11 20 21 23 33 35 36 37 40 43
9 15 18 20 25 26 28 31 33 39 41
5 7 8 9 15 26 32 37 42 43 44
8 9 14 16 20 26 30 31 38 39 44
2 7 11 17 22 26 27 30 34 35 39
4 5 7 8 12 21 33 34 35 36 41
7 10 12 19 21 30 31 42 43 46 48
13 15 18 25 28 29 34 41 44 47 48
3 5 6 8 9 26 30 33 36 37 38
4 5 17 18 24 37 38 44 48 49 50
4 5 6 17 21 25 26 32 43 47 48
5 13 24 30 33 34 35 40 42 43 48
1 3 10 24 25 26 31 35 41 45 49
12 15 16 21 23 31 38 41 42 44 49
2 7 14 16 27 31 32 33 35 49 50
11 15 21 23 30 34 36 37 43 44 48
4 7 12 19 21 27 32 35 45 47 49
5 14 15 24 26 29 34 36 38 41 45
6 11 15 17 18 24 27 29 31 36 38
3 6 8 10 12 13 21 26 28 43 49
1 8 12 20 23 35 40 42 44 46 47
8 9 12 23 33 35 36 39 41 43 49
1 4 15 18 19 29 31 33 35 41 48
2 4 11 20 32 33 35 36 39 40 47
9 10 12 13 19 21 23 26 41 45 48
6 8 16 25 26 29 32 33 36 43 46
1 3 9 10 19 21 26 27 29 43 48
1 3 5 9 17 20 29 33 37 38 49
1 5 12 21 29 35 41 42 45 46 48
5 10 16 19 20 24 27 28 35 42 50
6 7 10 11 16 17 26 31 37 40 42
2 5 9 10 12 16 24 31 41 44 49
9 15 16 21 30 32 38 41 42 44 46
3 5 7 9 10 12 27 29 30 36 46
4 15 16 19 20 21 23 29 37 44 45
5 7 9 10 14 37 39 42 43 44 47
3 4 7 14 20 21 22 23 34 44 49
1 5 7 13 24 29 33 34 37 38 44
2 12 13 14 18 26 28 38 43 44 48
4 6 18 33 37 42 44 45 48 49 50
1 2 3 5 9 13 15 16 22 47 50
6 7 12 16 20 24 25 31 34 39 40
14 16 17 18 19 36 41 45 46 47 48
6 9 12 13 17 18 24 38 42 44 50
5 9 17 21 24 31 32 38 42 46 49
3 10 11 14 20 23 27 28 30 34 44
2 6 16 19 31 34 38 40 42 47 50
3 6 10 14 15 17 18 27 28 34 37 46 47 49 50
1 3 5 6 7 8 11 12 13 16 18 20 22 23 27 28 29 30 31 32 38 39 44 45 47 48 49
1 3 4 5 6 9 10 11 12 13 14 15 17 18 20 21 26 29 31 34 47
1 2 4 7 8 9 11 12 16 17 19 20 23 24 25 26 33 35 37 39 49
6 7 12 21 26 27 30 34 42 47 50
8 9 14 24 25 29 31 33 42 46 47
2 8 11 13 21 31 35 42 47 48 50
1 6 8 16 19 31 35 38 43 49 50
4 5 9 10 15 25 27 38 40 44 45
2 12 19 24 26 27 37 38 41 43 47
1 17 18 26 30 32 39 41 43 45 50
2 7 10 22 28 35 41 47 49 50
2 6 8 10 11 28 38 40 48 50
5 8 9 18 20 22 27 32 41 50
2 5 9 15 19 23 24 27 33 43
1 7 13 18 20 26 28 29 41 44
1 6 7 19 21 26 28 31 33 46
3 12 13 15 16 17 19 21 22 23 27 31 32 33 34 36 37 39 40 41 48 49
4 7 13 18 22 24 25 29 31 38
8 19 20 24 27 28 40 47 48 49
2 9 12 14 16 22 24 35 39 42
4 15 21 24 27 32 34 39 43 49
3 4 5 6 8 11 12 13 14 17 19 20 22 23 24 25 26 27 28 29 30 34 35 37 38 41 43 44 45 49 50
5 15 17 18 20 21 22 24 25 26 27 28 29 32 33 35 36 41 42 43 44 45 46
2 4 7 8 9 10 15 17 18 21 22 23 24 25 26 30 32 33 38 39 40 41 42 46
2 5 6 7 8 12 13 15 16 20 21 25 26 37 40 41 43 45 47 48
1 3 4 5 7 13 14 15 16 18 19 20 21 22 23 44 47 49
5 27 29 31 37 43 44 46 47 48
3 5 6 7 12 25 30 31 43 45
6 8 13 16 17 21 39 42 48 50
1 9 10 18 24 33 34 35 36 37 38 40 42 43 44 45 46 49
1 2 3 4 5 6 9 11 12 16 17 19 20 23 25 26 27 32 33 35 36 39 42 45 47 48 49 50
1 2 3 4 7 9 10 13 15 16 17 18 19 22 23 24 25 26 28 38 39 40 41 42 46 47 49 50
3 4 5 6 7 12 15 20 21 22 23 24 28 32 33 36 37 38 39 40 44 45 47 48
2 10 18 19 20 21 22 27 29 30 33 35 36 37 43 44 45 46 49 50
1 2 3 5 8 14 17 19 20 27 28 31 33 34 35 42 43 44 47
1 5 11 19 31 33 36 41 42 46
5 7 11 18 19 20 27 31 40 43
1 2 15 17 22 28 36 37 38 42
4 6 12 16 18 19 20 23 26 32 33 34 35 36 40 41 42 43 44 47 48 49 50
2 3 4 5 7 9 10 14 15 17 18 21 22 23 24 25 29 31 32 34 35 36 37 38 39 40 41 42 43 45
7 15 18 23 26 27 31 35 39 41 44 45 46 47 48
1 3 4 5 6 10 11 12 13 14 16 17 18 19 20 21 22 23 29 33 35 45 49
3 10 11 17 18 19 28 31 33 37 40 41 43 44 45 48 50
1 2 9 11 17 20 25 29 30 31 32 33 34 35 36 43 45 47 49
4 5 7 10 11 13 22 23 24 31 36 37 38 39 40 45 46 47 48
5 7 9 11 18 19 21 29 30 33 35 37 38 40 41 42 44 45 46 50
1 3 4 5 7 9 11 12 17 23 25 26 27 28 30 33 35 36 41
1 2 3 11 15 17 18 21 31 38 39 40 41 42 47 49
7 10 11 12 15 16 18 25 28 29 31 32 38 39 40 41 44 46 47 48
4 5 6 9 11 13 14 19 20 21 22 25 27 39 40 43 45 46 47 48 50
1 3 4 5 7 9 11 12 15 16 17 18 19 20 25 28 36 40 43
1 6 8 9 10 11 17 18 19 22 23 25 26 29 31 32 33 34 40 41 43
5 7 8 12 13 14 15 16 23 24 26 27 28 29 30 31 32 38 40 42 45 47
2 5 12 18 21 22 27 29 30 31 32 35 36 37 38 41 42 43 44 45 46 50
1 3 4 5 15 17 18 19 21 22 24 25 27 28 33 34 35 36 39 40 41 42 43 44
2 7 17 19 21 25 30 33 34 35 37 40 41 42 47 49 50
1 3 4 5 6 7 8 12 13 15 16 19 29 30 31 33 36 37 39 40 41 43 46 47
1 2 3 4 5 6 10 12 14 37 38 39 42 43 45 46 47 50
3 4 6 11 15 25 27 28 30 31 34 35 39 41 42 43 45 46
1 2 3 5 7 8 9 15 17 20 21 22 25 26 34 37 38 44 46 47 49 50
1 3 5 6 8 9 10 12 13 15 16 17 20 21 22 23 24 28 29 31 32 36 37 38 39 40 41 42 44 45
1 3 4 6 7 8 11 13 14 15 19 22 23 26 27 29 30 34 37 38 39 40 45 50
1 3 4 8 9 10 11 12 15 17 18 19 20 21 22 27 28 30 31 32 33 34 35 36 40 41 43 44 47 48 49 50
1 2 5 8 9 10 14 15 16 17 18 22 23 25 27 31 33 34 36 40 43 45 46 47 48
5 7 8 11 12 13 15 16 21 23 24 28 29 31 32 35 36 39 40 41 44 45 47 48
1 6 11 12 13 14 21 22 24 27 29 30 33 36 39 44 45
1 3 4 7 8 16 18 19 20 25 27 28 32 33 35 36 37 39 41 42 43 44 47 49
1 2 5 6 7 9 10 17 23 24 31 33 34 41 42 44 45 47 49 50
3 5 7 13 15 16 18 19 21 23 24 34 37 39 40 44 45 47 48
3 4 5 10 11 13 14 21 23 25 26 33 34 37 38 41 42 43 44 45 46 48 50
1 2 3 4 7 8 12 16 17 19 20 22 25 27 28 30 34 35 36 38 41 43 44 47 48
1 2 8 9 10 14 17 18 31 32 33 34 35 38 39 41 42 46 47 49 50
6 7 8 10 11 12 13 15 18 26 27 29 31 33 39 40 41 45 47 48
2 7 10 11 14 19 20 21 22 24 27 29 30 31 35 37 38 39 42 43 45 46 50
1 3 4 8 9 10 11 12 15 23 24 25 27 28 31 33 34 35 38 39 40 41 43 44 46 47 49
1 2 5 6 7 8 9 10 11 12 14 15 17 18 20 22 23 25 26 27 28 29 31 32 33 35 36 39 41 42 48 49 50
2 5 6 7 8 13 14 15 16 21 22 23 24 26 27 29 31 33 34 36 37 38 39 40 44 49 50
4 5 6 7 8 10 11 12 13 14 23 25 31 35 37 38 43 48 49
8 9 15 25 26 28 32 33 34 35 36 37 38 40 41 42 43 45 49 50
1 5 7 15 23 25 26 29 32 33 34 38 39 41 42 45 46 47 48 49 50
1 2 3 6 7 8 11 13 14 16 17 18 19 20 28 37 38 39 45 46 47
2 3 5 6 10 11 24 27 29 30 35 40 42 43 45 46 49 50
8 9 11 12 14 16 18 19 20 25 26 27 28 32 33 34 35 36 41 42 43 44 46 47 49
1 2 7 8 9 13 16 21 22 23 24 30 31 33 34 37 46 47 48 49 50
4 5 6 7 8 9 10 11 12 14 15 21 22 23 24 27 31 33 37 48 49
5 7 8 10 11 13 14 18 24 25 34 35 37 38 41 42 50
1 3 4 8 12 15 32 33 35 36 41 48 49 50
1 2 3 4 5 6 7 9 10 15 16 17 18 21 26 30 31 32 33 34 37 38 44 46
3 4 5 12 13 15 16 21 22 23 26 27 29 30 31 34 36 38 39 42 45 46 47
2 3 4 5 8 9 10 11 12 13 15 18 19 20 21 26 27 28 29 35 36 37 38 40 42 43 44 45
1 2 3 4 6 8 9 10 11 15 17 18 19 25 26 27 30 33 34 35 38 40 41 42 43 45 48 49 50
1 2 4 7 8 9 12 15 16 17 20 22 23 24 25 26 29 30 31 32 33 38 39 40 41 46 47 48 49 50
4 5 6 7 8 10 12 13 14 15 20 21 22 23 28 29 30 31 36 37 38 39 42 44 45 46 47 49
2 3 4 5 11 12 13 19 20 21 24 26 27 28 29 32 35 36 37 40 43 44 45 48 50
1 2 3 4 7 8 9 10 11 16 17 18 19 25 26 27 28 31 33 34 35 41 42 43 44 47 49
1 2 4 6 7 9 10 13 14 15 17 25 30 31 32 33 37 43 44 49 50
3 7 8 12 13 16 20 21 22 23 24 27 29 31 32 33 36 37 45 47 48 49
3 5 6 9 10 11 14 15 20 21 22 23 24 28 29 30 32 33 35 43 44 45 46 47
1 2 3 4 5 7 9 14 15 17 18 19 20 22 25 26 27 28 33 41 42 43 44 46 48 49 50
1 2 4 7 8 16 17 18 22 24 25 26 29 31 35 37 39 40 41 42 46 47 48 49 50
3 5 8 14 15 16 22 23 24 25 27 28 29 33 37 38 39 40 43 45 46 47 48 49 50
1 3 6 10 11 12 13 14 18 19 20 21 22 26 27 35 36 37 38 43 44 45 46 49 50
1 7 8 9 10 11 12 14 20 21 24 30 35 39 43 50
1 4 9 15 17 18 21 22 23 24 25 26 27 28 29 30 31 32 33 34 39 40 41 42 45 47 48
5 6 7 8 10 13 14 15 16 17 21 30 31 32 38 39 40 41 42 49
3 4 5 6 10 11 12 13 14 15 24 29 34 41 42 43 46
5 9 11 12 14 15 17 18 19 20 25 27 28 31 34 35 36 39 41 42 43 47
10 11 12 14 17 18 29 30 36 37 38 45 47 49
7 8 11 15 17 21 23 24 29 32 35 37 42 49
1 3 9 12 14 15 16 18 19 20 21 22 23 24 32 35 36 37 41 47
2 4 9 11 12 21 25 27 28 32 33 35 36 39 40 42 43 44 45
3 5 11 14 15 17 18 29 33 34 35 38 39 41 42 45 46 49
7 8 13 15 16 17 19 20 26 28 29 31 32 43 50
15 17 19 25 26 27 28 29 30 31 32 33 35 37 38 41 43 44 45
1 3 4 10 11 16 17 18 19 20 21 23 32 33 35 36 41 43 44 47 50
1 5 6 7 9 13 15 19 21 29 32 37 38 41 46 47 49 50
10 11 20 21 23 24 26 31 32 33 36 37 39 40 45
1 6 22 26 28 29 31 34 35 36 37 38 39 40 42 43 45 46
1 2 3 11 16 17 19 20 29 32 33 36 39 43 45 48 49
1 2 3 5 7 8 9 15 16 17 18 19 22 24 25 26 31 32 33 38 39 40 41 44 46 47 48 49
1 3 5 6 7 8 12 13 14 15 21 22 23 28 29 30 31 34 37 38 39 41 44 45 46 47 49
3 4 5 9 11 12 13 14 18 19 20 21 24 27 28 29 34 35 36 37 42 43 44 45 48
1 2 3 6 8 9 10 11 16 17 18 19 24 25 26 27 28 30 32 33 34 35 40 41 42 43 46 47 48 49 50
1 3 6 7 8 9 10 12 14 15 16 17 22 23 24 25 30 31 32 33 36 38 39 40 41 44 47 48 49
1 5 6 7 12 13 14 15 18 20 21 22 23 29 30 31 35 36 37 38 39 44 45 46 47 50
2 3 4 5 9 11 12 13 17 19 20 21 25 27 28 29 33 35 36 37 38 42 43 45 46 49 50
1 5 11 13 16 17 18 19 24 35 36 37 42 43 44 46 47 48 49
3 5 7 9 10 13 15 17 18 22 23 24 29 31 33 34 39 41 42 45 46 47
1 6 7 8 9 14 15 16 17 19 21 27 29 30 31 32 34 37 38 39 40 41 43 45
1 3 4 5 6 8 11 12 13 14 19 26 27 28 29 30 34 35 36 37 38 42 43 49
2 3 4 8 9 10 11 12 13 15 17 20 25 26 27 28 31 32 33 34 35 36 39 41 50
1 2 4 7 8 9 10 13 14 15 20 23 24 25 26 31 32 33 34 37 39 41 47 48 49 50
4 5 6 7 8 10 11 13 16 21 22 23 24 29 30 31 32 33 35 37 42 46 47 48 49 50
2 4 5 6 9 11 13 16 19 20 21 22 26 27 28 29 30 35 38 43 44 45 46
1 2 3 4 5 7 9 14 17 18 19 20 21 25 26 27 28 31 33 34 37 41 42 43 44 49 50
1 2 7 11 16 17 18 21 24 25 26 27 29 31 38 39 40 41 42 46 47 48 49 50
3 5 13 14 15 16 18 20 21 22 23 24 27 28 29 30 37 38 39 40 42 44 45 46 47 48 50
1 3 7 11 12 13 14 19 20 21 22 27 34 35 36 37 38 40 43 44 45 46 49
1 7 9 10 11 12 17 18 19 20 23 25 33 34 35 36 38 40 41 42 43 44 45 47 49
2 7 8 9 10 13 16 17 18 21 23 29 30 32 33 34 36 38 40 41 42 45 47 48
1 6 7 8 9 14 15 16 19 21 25 30 31 32 38 39 40 41 43 44 45
3 4 5 6 8 11 12 13 14 19 20 21 28 29 30 33 34 36 37 38 39 41 43 48
1 2 3 4 6 10 11 12 15 17 25 26 27 28 29 32 33 34 35 36 41 42 46 50
1 2 3 8 9 10 13 15 19 24 25 26 30 32 33 34 37 38 39 43 48 49 50
1 6 7 8 13 15 18 27 28 29 31 32 33 37 38 39 43 44 45
1 3 8 10 12 13 18 19 24 29 30 34 35 37 38 43 46 50
1 3 4 7 8 12 16 23 27 28 32 33 34 36 39 40 41 47 49 50
1 2 7 8 9 10 13 14 15 21 23 24 25 26 30 31 32 33 34 39 40 42 47 48 49 50
4 6 7 8 11 13 17 18 21 22 23 24 26 28 29 30 31 32 35 37 40 46 47 48 49
1 2 4 5 6 9 11 19 20 21 22 23 25 27 28 29 30 33 35 39 41 43 44 45 46 50
1 2 3 4 5 9 12 17 18 19 20 24 25 26 27 28 31 33 42 43 44 46 48 50
1 2 3 5 6 7 9 13 15 16 17 18 20 23 24 25 26 28 31 39 40 41 42 44 47 48 49 50
1 3 5 6 10 13 14 15 16 18 21 22 23 24 28 29 30 31 32 38 39 40 45 46 47 48
1 3 10 11 12 13 14 16 17 19 20 22 23 24 25 26 29 30 32 33 34 37 42 43 45 46 47 49
2 3 4 6 7 8 9 10 12 13 14 17 19 20 32 35 37 40 41 43 44 45 48 49 50
1 2 7 8 9 10 15 16 17 18 21 23 28 29 30 33 35 39 40 41 42 43 45 47
1 2 5 6 7 8 13 14 15 16 18 19 21 22 29 30 31 32 36 37 38 39 40 43 49
1 6 9 10 12 13 14 17 22 25 29 34 36 43 44 45 46 47
2 8 9 11 12 15 19 25 27 28 31 38 39 40 41 42 43 44
1 7 8 13 23 24 25 26 28 29 30 31 33 34 38 42 45 49 50
6 7 8 10 12 15 16 19 20 21 22 23 28 29 30 31 33 34 36 48
4 5 6 11 13 14 19 21 22 24 26 32 35 36 37 38 43 45 48 49
1 3 4 7 13 19 20 24 25 26 27 28 30 33 34 35 41 47
3 6 8 9 13 14 15 25 31 33 34 38 46 47 49 50
3 11 14 15 16 20 21 23 29 30 36 38 40 42 43 45 47 49 50
4 20 21 24 25 27 28 29 30 35 39 43 45 49
1 2 3 4 6 13 15 17 18 20 21 22 25 27 28 29 34 41 43 44 49
1 2 4 6 8 9 10 14 15 17 18 21 22 23 24 25 30 32 33 34 38 40 41 42 45 49
4 5 6 7 8 11 13 15 16 19 21 22 23 28 29 31 32 36 37 38 39 40 41 44 48
1 11 13 14 18 19 20 21 22 34 35 36 37 38 41 42 43 45 46 47 48 49 50
1 2 3 8 9 10 11 16 18 19 23 24 25 27 28 31 33 34 35 37 38 39 40 42 43 44 46
3 6 7 9 11 14 16 17 18 19 27 31 33 34 35 40 41 42 44 49
1 3 5 7 9 14 15 16 18 19 24 25 27 29 31 33 34 38 39 40 49
1 3 4 6 7 8 11 13 14 15 17 19 20 21 22 23 24 25 27 28 30 31 32 34 37 38 42 43 44 45 46 49 50
1 2 3 4 5 6 9 11 12 15 17 19 20 23 24 25 26 27 28 40 41 43 44 48 49 50
1 2 5 7 8 9 10 11 15 17 18 21 22 23 24 25 26 29 30 31 37 39 40 41 42 47 49 50
5 6 7 8 17 20 22 24 27 29 39 47 49
3 10 14 19 25 27 28 29 30 31 35 36
5 7 9 10 12 13 14 16 17 19 20 22 23 28 30 31 33 34 36 37 38 39 41 42 44 45 46
6 7 9 10 14 15 16 17 18 20 22 29 30 31 32 33 34 36 43 45 47 48
3 4 5 7 8 9 11 23 26 42 47 48
9 12 14 15 18 19 21 22 32 35 37 38 40
3 6 10 33 38 41 47 48 49
2 6 11 31 34 35 37 44
3 9 11 14 15 19 23 28 31 35 39 45 47 48 50
2 3 4 5 6 9 20 23 29 42 43 45 48
3 9 10 11 12 15 16 17 18 19 20 34 36 43 47 49
3 7 9 10 11 17 23 25 26 29 30 31 32 33 34 40 45 46 47 48 49 50
4 5 7 14 17 18 19 20 21 23 36 37 39 40 45 47 48 49
6 8 14 16 18 19 21 22 33 37 38 48 49
4 6 8 10 15 16 17 18 19 24 25 27 28 35 39 46 47 48 49
1 2 5 6 13 21 23 24 25 26 31 32 33 34 45 47 49 50
1 5 6 7 8 10 15 16 19 20 21 22 23 24 28 35 36 39 42 45 47 48
3 5 6 9 10 11 13 14 18 19 20 21 26 27 28 29 31 34 36 37 38 42 43 44 45 46 50
1 2 3 6 8 9 10 11 17 18 19 24 26 27 28 32 33 34 35 39 41 42 43 44 45 46 49 50
1 6 7 8 9 13 15 16 17 22 23 24 25 30 32 33 37 38 39 40 41 42 43 45 46 47 48 49
3 4 8 10 12 14 15 16 21 23 24 28 29 31 32 35 36 37 43 44 45 46 47 48
3 5 6 9 10 13 14 17 20 26 27 29 30 35 36 37 38 42 43 44 45
4 7 8 9 11 12 16 17 18 19 20 21 24 25 27 28 33 35 36 39 41 43 44 47 48
1 2 4 6 7 8 9 10 11 13 15 26 29 33 34 39 41 42 45 46 47 49 50
2 4 5 7 8 9 10 12 13 15 16 20 22 23 24 27 28 29 31 32 35 39 40 45 47 48
2 3 5 6 19 20 21 22 27 29 30 31 32 34 35 36 37 38 39 40
1 3 4 6 8 9 11 12 13 16 17 19 20 22 23 24 26 32 34 35 48
1 2 7 9 10 13 16 17 18 22 24 25 26 33 38 39 40 41 42 46
4 5 7 8 10 11 12 14 15 16 20 21 22 23 27 29 31 32 37 38 39 43 44 46 48
2 3 5 6 11 12 13 14 21 25 27 29 30 35 36 37 38 40 41 45 46 49 50
1 3 4 7 10 11 16 18 19 24 27 28 32 34 35 36 40 43 44 47 50
1 5 10 13 15 16 17 18 23 24 25 30 31 33 34 37 38 39 40 41 44 46 47
4 5 6 7 8 11 15 16 21 22 23 24 28 29 30 31 36 38 39 45 47 48
2 3 4 5 6 10 12 13 17 18 20 21 24 26 28 29 34 35 36 37 41 43 44 46 47 48 50
2 3 8 10 11 15 16 17 18 19 21 23 25 26 27 28 31 33 34 36 37 38 40 41 43 44 46 47 49 50
1 3 6 8 9 13 14 16 17 18 19 22 23 25 26 30 32 33 34 37 39 40 42 43 44 47 49 50
1 4 5 7 8 11 12 19 21 22 24 25 26 28 29 31 32 36 37 39 40 43 44 45 46 47 49
3 7 10 11 12 13 19 20 21 23 26 27 28 29 35 36 37 42 43 44 45 47 48 50
1 2 3 9 10 11 16 17 18 19 23 24 25 26 27 30 32 33 34 35 36 39 40 41 42 43 44 48 49 50
1 7 8 9 11 14 15 16 17 22 23 24 25 29 30 31 32 33 34 35 36 38 39 40 41 46 47 48 49 50
4 5 6 7 8 13 14 15 20 21 22 23 26 28 29 30 31 36 37 38 39 44 45 46 47
3 4 5 7 10 11 12 13 15 19 20 21 25 27 28 29 35 36 37 42 43 44 45 48
1 2 3 5 7 8 9 10 11 16 17 18 19 22 25 27 28 31 32 33 34 35 40 42 43 48 50
1 3 7 9 10 13 14 15 16 17 20 23 24 25 29 32 33 34 36 37 38 40 41 42 45 48 49 50
4 5 6 7 9 12 13 14 15 16 21 23 24 26 27 28 29 30 31 37 39 40 46 47 48 49
1 4 5 6 12 13 14 19 20 21 27 28 29 34 35 37 38 41 44 45
1 2 3 4 5 7 8 10 11 15 18 19 20 29 30 33 34 35 40 41 42 43 48 49
1 2 3 9 15 17 18 21 24 25 28 29 30 31 33 34 38 40 41 46 48 49 50
4 6 7 11 14 15 16 20 22 23 24 26 28 29 31 32 44 46 47 50
2 4 5 7 9 10 11 13 14 17 18 19 20 21 26 28 29 33 35 36 38 39 40 42 43 45 46 49
1 2 3 6 8 10 11 14 16 18 19 20 23 24 25 27 28 32 33 34 35 39 41 42 44 45 46 48 50
1 6 8 9 14 15 16 17 22 24 25 29 30 32 33 34 35 37 38 44 46 47 49 50
4 5 7 8 11 13 14 16 17 18 20 21 23 24 30 31 32 33 38 39 40 43 46 47 49
5 6 18 19 21 22 28 29 33 37 38 41 43 44 45 46
2 7 11 12 16 17 23 24 25 27 28 31 35 37 41 42 43 44 48 49
1 2 6 7 8 9 10 12 15 17 18 20 21 22 24 25 29 37 39 44 45 46 47 48 49 50
2 5 6 7 8 11 13 14 15 16 20 21 22 23 31 35 37 39 40 44 45 47 48
1 3 11 13 14 17 18 19 20 21 25 26 33 35 36 37 38 41 44 45 46 50
2 3 4 7 8 9 10 11 13 16 17 18 19 24 25 27 28 32 33 35 36 40 41 43 44 47 48 50
1 4 8 9 10 12 14 16 17 19 21 22 23 25 26 29 31 32 33 39 40 41 45
4 5 7 8 12 13 14 15 19 20 21 22 23 24 25 28 30 31 32 37 39 40 47 48
2 3 4 5 10 12 13 18 19 20 21 22 24 27 29 30 35 36 37 41 42 43 44 45 46 49 50
1 3 4 7 8 9 10 11 16 17 18 19 24 26 27 29 32 33 35 36 39 48 49
1 2 5 7 9 10 12 17 22 23 25 26 29 30 31 33 34 37 39 40 41 42 47 49 50
1 5 7 8 12 13 14 15 16 21 22 23 28 29 30 31 36 37 38 39 43 46 49
4 8 9 13 17 24 25 43 45 46
1 2 3 5 8 9 10 11 13 14 15 19 20 21 38 39 40 43 44 47
11 13 16 17 18 20 22 23 24 25 26 27 30 31 32 33 41 42 43 46 49
1 4 13 15 16 19 24 26 27 30 36 37 39 40 43 45 46 47 50
4 5 8 13 18 20 21 27 28 29 34 35 36 37 39 42 43 44 45 47 50
1 3 4 8 10 11 16 18 19 20 23 32 33 35 36 39 40 41 42 43 48 49
1 2 5 8 9 11 13 25 30 31 33 34 37 39 40 41 46 48 49
7 9 11 14 15 28 30 31 32 36 37 38 39 40 44 45 47 48 50
2 4 5 12 13 24 26 27 29 30 32 33 34 35 36 37 38
1 3 4 13 14 19 23 24 32 33 35 36 37 46
2 21 22 31 32 33 36 37 39 40 41 48 49
8 14 26 27 33 34 35
7 10 17 28 33 34 35 37 39 41 43 49
3 11 27 29 31 46 48 50
3 5 9 34 38 49
3 7 9 11 31 38
1 11 16 32 39 45
13 23 28 31 40 48
4 7 18 27 29 30
2 4 16 23 32 36
3 8 18 22 36 46
1 16 27 37 39 46
4 6 33 39 45 49
5 9 16 17 32 36
13 20 22 24 33 36
2 12 26 39 44 46
1 5 12 16 24 27
3 7 14 20 37 44
15 18 21 34 37 38
6 17 26 35 43 47
4 12 25 26 28 46
9 11 21 34 36 47
4 6 25 27 31 50
1 19 22 24 26 33
1 8 21 24 25 30 32 35 37 38 40 42 43 44
1 5 7 10 13 17
12 13 31 32 41
5 21 40 41 49
3 14 21 25 48
11 18 31 40 44
8 33 41 47 49
5 7 17 19 32
7 27 29 35 36
26 29 34 40 42
2 26 39 46 49
14 21 29 30 32
13 15 22 42 49
21 23 24 38 43
10 34 38 42
1 23 31 34
15 17 33 45
14 21 45 47
16 39 44 47
2 19 37
9 13
11 12 13 15 16 19 20 21 22 23 35 37 38 39 40 43 45 46 47 48
1 1 1 1 1 1 1 1 1 1 1 1 1 1 1 1 1 1 1 1 1 1 1 1 1 1 1 1 1 1 1 1 1 1 1 1 1 1 1 1 1 1 1 1 1 1 1 1 1 1 1 1 1 1 1 1 1 1 1 1 1 1 1 1 1 1 1 1 1 1 1 1 1 1 1 1 1 1 1 1 1 1 1 1 1 1 1 1 1 1 1 1 1 1 1 1 1 1 1 1 1 1 1 1 1 1 1 1 1 1 1 1 1 1 1 1 1 1 1 1 1 1 1 1 1 1 1 1 1 1 1 1 1 1 1 1 1 1 1 1 1 1 1 1 1 1 1 1 1 1 1 1 1 1 1 1 1 1 1 1 1 1 1 1 1 1 1 1 1 1 1 1 1 1 1 1 1 1 1 1 1 1 1 1 1 1 1 1 1 1 1 1 1 1 1 1 1 1 1 1 1 1 1 1 1 1 1 1 1 1 1 1 1 1 1 1 1 1 1 1 1 1 1 1 1 1 1 1 1 1 1 1 1 1 1 1 1 1 1 1 1 1 1 1 1 1 1 1 1 1 1 1 1 1 1 1 1 1 1 1 1 1 1 1 1 1 1 1 1 1 1 1 1 1 1 1 1 1 1 1 1 1 1 1 1 1 1 1 1 1 1 1 1 1 1 1 1 1 1 1 1 1 1 1 1 1 1 1 1 1 1 1 1 1 1 1 1 1 1 1 1 1 1 1 1 1 1 1 1 1 1 1 1 1 1 1 1 1 1 1 1 1 1 1 1 1 1 1 1 1 1 1 1 1 1 1 1 1 1 1 1 1 1 1 1 1 1 1 1 1 1 1 1 1 1 1 1 1 1 1 1 1 1 1 1 1 1 1 1 1 1 1 1 1 1 1 1 1 1 1 1 1 1 1 1 1 1 1 1 1 1 1 1 1 1 1 1 1 1 1 1 1 1 1 1 1 1 1 1 1 1 1 1 1 1 1 1 1 1 1 1 1 1 1 1 1 1 1 1 1 1 1 1 1 1 1 1 1 1 1 1 1 1 1 1 1 1 1 1 1 1 1 1 1 1 1 1 1 1 1 1 1 1 1 1 1 1 1 1 1 1 1 1 1 1 1 1 1 1 1
